(set-info :smt-lib-version 2.6)
(set-logic LRA)
(set-info :source |
   Monniaux, David; Quantifier Elimination by Lazy Model Enumeration, CAV 2010
|)
(set-info :category "random")
; ./Mjollnir_examples/B4/formula_244.m
(set-info :status unsat)
(assert
 (exists ((|v11:0| Real) )(exists ((|v10:1| Real) )(exists ((|v9:2| Real) )(exists ((|v8:3| Real) )(forall ((|v7:4| Real) )(forall ((|v6:5| Real) )(forall ((|v5:6| Real) )(forall ((|v4:7| Real) )(exists ((|v3:8| Real) )(exists ((|v2:9| Real) )(exists ((|v1:10| Real) )(exists ((|v0:11| Real) )(let ((?x329 18))
(let ((?x602 (+ (+ (+ (* (- 4) |v4:7|) (* (- 7) |v8:3|)) |v8:3|) |v9:2|)))
(let ((?x151 12))
(let ((?x103 (- 1)))
(let ((?x376 (* ?x103 |v4:7|)))
(let ((?x597 (+ (+ (* 17 |v1:10|) (* ?x329 |v6:5|)) (* (- 19) |v5:6|))))
(let ((?x44 20))
(let ((?x589 (+ (+ (* (- 18) |v5:6|) (* 4 |v5:6|)) (* 4 |v4:7|))))
(let ((?x56 (- 3)))
(let ((?x363 (* ?x56 |v5:6|)))
(let ((?x584 (+ (+ (+ (* (- 10) |v10:1|) |v0:11|) (* (- 8) |v3:8|)) ?x363)))
(let (($x605 (and (and (<= ?x584 ?x56) (<= (+ ?x589 (* 0 |v8:3|)) ?x44)) (and (<= (+ ?x597 ?x376) ?x151) (<= ?x602 ?x329)))))
(let ((?x189 (- 13)))
(let ((?x480 (* ?x103 |v5:6|)))
(let ((?x10 9))
(let ((?x359 (* ?x10 |v3:8|)))
(let (($x578 (<= (+ (+ (+ (* ?x44 |v10:1|) (* (- 9) |v7:4|)) ?x359) ?x480) ?x189)))
(let ((?x19 (- 2)))
(let ((?x67 17))
(let ((?x569 (* ?x67 |v0:11|)))
(let ((?x571 (+ (+ (+ (* 2 |v0:11|) (* 2 |v4:7|)) ?x569) ?x569)))
(let ((?x127 (- 19)))
(let ((?x53 (- 8)))
(let ((?x407 (* ?x53 |v3:8|)))
(let (($x564 (<= (+ (+ (+ |v8:3| (* 14 |v11:0|)) (* ?x10 |v6:5|)) ?x407) ?x127)))
(let ((?x114 2))
(let ((?x291 (- 15)))
(let ((?x448 (* ?x291 |v5:6|)))
(let ((?x557 (+ (+ (* (- 6) |v3:8|) (* ?x56 |v3:8|)) (* 15 |v3:8|))))
(let (($x606 (or (and (and (<= (+ ?x557 ?x448) ?x114) $x564) (and (<= ?x571 ?x19) $x578)) $x605)))
(let ((?x86 19))
(let ((?x185 (* ?x10 |v0:11|)))
(let ((?x547 (+ (+ (* 11 |v11:0|) (* (- 18) |v1:10|)) (* ?x44 |v11:0|))))
(let ((?x14 3))
(let ((?x248 (* ?x56 |v11:0|)))
(let ((?x143 (- 6)))
(let ((?x463 (* ?x143 |v5:6|)))
(let ((?x541 (+ (+ (+ (* (- 11) |v7:4|) (* 5 |v7:4|)) ?x463) ?x248)))
(let ((?x535 (+ (+ (+ (* ?x44 |v5:6|) (* ?x14 |v10:1|)) (* (- 7) |v10:1|)) (* ?x44 |v7:4|))))
(let ((?x276 (* ?x86 |v4:7|)))
(let ((?x71 (- 10)))
(let ((?x307 (* ?x71 |v7:4|)))
(let ((?x529 (+ (+ (+ (* 7 |v0:11|) (* (- 12) |v5:6|)) ?x307) ?x276)))
(let (($x551 (and (and (<= ?x529 ?x329) (<= ?x535 ?x14)) (and (<= ?x541 ?x14) (<= (+ ?x547 ?x185) ?x86)))))
(let ((?x330 (* ?x329 |v0:11|)))
(let ((?x521 (+ (+ (+ (* ?x44 |v0:11|) (* ?x14 |v11:0|)) (* 11 |v1:10|)) ?x330)))
(let ((?x136 10))
(let ((?x512 (+ (+ (* 8 |v0:11|) (* 16 |v1:10|)) (* ?x329 |v7:4|))))
(let ((?x267 (- 12)))
(let ((?x468 (* ?x267 |v0:11|)))
(let ((?x506 (+ (+ (+ (* ?x127 |v7:4|) (* 16 |v9:2|)) (* ?x67 |v5:6|)) ?x468)))
(let ((?x132 7))
(let ((?x145 (* ?x132 |v2:9|)))
(let ((?x498 (+ (+ (* (- 7) |v10:1|) (* (- 14) |v11:0|)) (* 4 |v7:4|))))
(let (($x524 (and (and (<= (+ ?x498 ?x145) ?x67) (<= ?x506 ?x291)) (and (<= (+ ?x512 (* 16 |v4:7|)) ?x136) (<= ?x521 ?x329)))))
(let ((?x488 (+ (+ (+ (* ?x127 |v8:3|) (* ?x127 |v10:1|)) (* ?x127 |v0:11|)) (* ?x114 |v10:1|))))
(let ((?x268 (* ?x267 |v11:0|)))
(let (($x483 (<= (+ (+ (+ (* ?x151 |v1:10|) (* (- 17) |v2:9|)) ?x480) ?x268) ?x103)))
(let ((?x474 (+ (+ (+ ?x468 (* 0 |v9:2|)) (* ?x189 |v2:9|)) (* (- 18) |v11:0|))))
(let ((?x214 6))
(let ((?x466 (+ (+ (+ (* (- 14) |v5:6|) (* ?x67 |v2:9|)) ?x463) (* ?x189 |v8:3|))))
(let ((?x456 (+ (+ (+ (* 4 |v9:2|) ?x248) |v1:10|) (* (- 11) |v8:3|))))
(let ((?x121 (- 11)))
(let ((?x451 (+ (+ (+ (* 8 |v6:5|) (* ?x10 |v11:0|)) ?x448) (* 11 |v10:1|))))
(let ((?x108 (- 7)))
(let ((?x443 (+ (+ (+ (* ?x127 |v8:3|) (* (- 5) |v0:11|)) (* ?x136 |v8:3|)) (* (- 5) |v4:7|))))
(let ((?x434 (* ?x127 |v10:1|)))
(let ((?x433 (+ (+ (* 0 |v5:6|) (* ?x67 |v1:10|)) (* 11 |v7:4|))))
(let (($x459 (and (and (<= (+ ?x433 ?x434) ?x56) (<= ?x443 ?x108)) (and (<= ?x451 ?x121) (<= ?x456 ?x44)))))
(let (($x492 (and $x459 (and (and (<= ?x466 ?x214) (<= ?x474 ?x143)) (and $x483 (<= ?x488 ?x114))))))
(let ((?x198 (* ?x127 |v2:9|)))
(let ((?x425 (+ (+ (+ (* 16 |v8:3|) (* ?x151 |v8:3|)) (* ?x132 |v4:7|)) ?x198)))
(let ((?x419 (+ (+ (+ (* ?x136 |v1:10|) (* ?x53 |v11:0|)) (* 16 |v1:10|)) (* (- 14) |v10:1|))))
(let ((?x79 (- 20)))
(let ((?x412 (+ (+ (+ (* ?x114 |v2:9|) ?x407) (* ?x79 |v8:3|)) (* 14 |v8:3|))))
(let ((?x24 13))
(let ((?x25 (* ?x24 |v2:9|)))
(let ((?x404 (+ (+ (+ (* 14 |v5:6|) (* (- 18) |v7:4|)) ?x359) ?x25)))
(let (($x428 (and (and (<= ?x404 ?x67) (<= ?x412 ?x79)) (and (<= ?x419 ?x10) (<= ?x425 1)))))
(let ((?x27 16))
(let ((?x397 (+ (+ (+ (* 11 |v8:3|) (* ?x86 |v11:0|)) (* ?x143 |v10:1|)) (* ?x71 |v0:11|))))
(let ((?x337 (* ?x189 |v6:5|)))
(let ((?x389 (+ (+ (* 4 |v3:8|) (* ?x151 |v2:9|)) (* (- 17) |v8:3|))))
(let (($x383 (<= (+ (+ (+ ?x376 (* ?x189 |v0:11|)) (* ?x132 |v10:1|)) (* ?x291 |v7:4|)) ?x86)))
(let ((?x303 (* ?x27 |v8:3|)))
(let ((?x99 15))
(let ((?x100 (* ?x99 |v0:11|)))
(let (($x375 (<= (+ (+ (+ (* ?x10 |v11:0|) (* 14 |v10:1|)) ?x100) ?x303) ?x151)))
(let (($x429 (and (and (and $x375 $x383) (and (<= (+ ?x389 ?x337) ?x19) (<= ?x397 ?x27))) $x428)))
(let ((?x164 14))
(let ((?x356 (+ (+ (+ (* (- 4) |v4:7|) (* ?x19 |v7:4|)) (* ?x189 |v5:6|)) (* ?x291 |v1:10|))))
(let (($x366 (and (<= ?x356 ?x164) (<= (+ (+ (+ (* ?x56 |v2:9|) ?x359) (* ?x56 |v4:7|)) ?x363) ?x108))))
(let ((?x170 (- 14)))
(let ((?x349 (+ (+ (+ (* 4 |v9:2|) (* ?x121 |v2:9|)) (* ?x108 |v4:7|)) (* ?x99 |v2:9|))))
(let (($x342 (<= (+ (+ (+ ?x337 (* (- 4) |v5:6|)) ?x185) (* ?x99 |v7:4|)) ?x291)))
(let ((?x34 5))
(let (($x334 (<= (+ (+ (+ (* ?x170 |v4:7|) (* ?x24 |v4:7|)) ?x330) (* ?x132 |v6:5|)) ?x34)))
(let ((?x322 (* ?x27 |v1:10|)))
(let ((?x89 (- 4)))
(let ((?x208 (* ?x89 |v4:7|)))
(let (($x335 (and (<= (+ (+ (+ (* ?x89 |v6:5|) (* ?x136 |v1:10|)) ?x208) ?x322) ?x127) $x334)))
(let ((?x315 (+ (+ (+ (* ?x136 |v10:1|) (* (- 17) |v3:8|)) (* ?x103 |v0:11|)) (* (- 18) |v3:8|))))
(let (($x309 (<= (+ (+ (+ (* ?x121 |v7:4|) ?x303) (* (- 16) |v4:7|)) ?x307) ?x71)))
(let (($x368 (and (and (and $x309 (<= ?x315 ?x189)) $x335) (and (and $x342 (<= ?x349 ?x170)) $x366))))
(let ((?x297 (+ (+ (+ |v8:3| (* ?x291 |v8:3|)) (* (- 9) |v6:5|)) (* ?x151 |v3:8|))))
(let ((?x288 (+ (+ (+ (* ?x103 |v6:5|) (* ?x27 |v3:8|)) (* ?x214 |v1:10|)) (* ?x53 |v0:11|))))
(let (($x280 (<= (+ (+ (+ (* ?x79 |v7:4|) (* ?x214 |v3:8|)) ?x276) (* ?x214 |v0:11|)) ?x164)))
(let ((?x39 0))
(let ((?x271 (+ (+ (+ (* 8 |v2:9|) (* ?x86 |v11:0|)) ?x268) (* ?x10 |v10:1|))))
(let ((?x60 (- 9)))
(let ((?x258 (+ (+ (+ (* ?x164 |v5:6|) (* ?x67 |v4:7|)) (* (- 16) |v8:3|)) (* ?x19 |v5:6|))))
(let (($x251 (<= (+ (+ (+ (* ?x114 |v3:8|) (* ?x44 |v6:5|)) (* ?x60 |v5:6|)) ?x248) 1)))
(let ((?x149 (* ?x143 |v1:10|)))
(let (($x241 (<= (+ (+ (+ (* ?x132 |v8:3|) |v11:0|) (* (- 17) |v7:4|)) ?x149) ?x67)))
(let ((?x234 (+ (+ (+ (* ?x44 |v5:6|) (* 4 |v5:6|)) (* ?x114 |v8:3|)) (* ?x27 |v2:9|))))
(let (($x301 (and (and (or (<= ?x234 ?x103) $x241) (and $x251 (<= ?x258 ?x60))) (and (and (<= ?x271 ?x39) $x280) (and (<= ?x288 ?x34) (<= ?x297 ?x34))))))
(let ((?x175 (* ?x164 |v1:10|)))
(let (($x224 (<= (+ (+ (+ (* ?x127 |v4:7|) (* ?x114 |v8:3|)) (* ?x14 |v7:4|)) ?x175) ?x108)))
(let (($x217 (<= (+ (+ (+ ?x208 (* ?x108 |v11:0|)) (* ?x114 |v5:6|)) (* ?x214 |v10:1|)) ?x121)))
(let ((?x205 (- 17)))
(let ((?x45 (* ?x44 |v3:8|)))
(let (($x206 (<= (+ (+ (+ (* ?x164 |v11:0|) ?x198) (* (- 16) |v2:9|)) ?x45) ?x205)))
(let ((?x194 4))
(let (($x195 (<= (+ (+ (+ ?x185 (* ?x79 |v6:5|)) (* ?x189 |v9:2|)) (* ?x164 |v10:1|)) ?x194)))
(let (($x181 (<= (+ (+ (+ (* ?x136 |v11:0|) ?x175) (* ?x14 |v4:7|)) (* ?x86 |v11:0|)) ?x27)))
(let ((?x172 (+ (+ (+ (* ?x60 |v1:10|) (* ?x164 |v2:9|)) (* ?x136 |v2:9|)) (* ?x170 |v8:3|))))
(let ((?x159 (+ (+ (+ (* ?x99 |v4:7|) (* ?x136 |v10:1|)) (* ?x14 |v9:2|)) (* ?x86 |v3:8|))))
(let (($x161 (and (<= (+ (+ (+ (* ?x143 |v6:5|) ?x145) (* ?x60 |v5:6|)) ?x149) ?x151) (<= ?x159 ?x39))))
(let (($x227 (and (and $x161 (and (<= ?x172 ?x27) $x181)) (or (and $x195 $x206) (and $x217 $x224)))))
(let (($x137 (<= (+ (+ (+ (* ?x127 |v3:8|) (* ?x39 |v5:6|)) (* ?x132 |v9:2|)) |v6:5|) ?x136)))
(let ((?x123 (+ (+ (+ (* ?x114 |v9:2|) (* ?x24 |v11:0|)) (* ?x79 |v4:7|)) (* ?x121 |v6:5|))))
(let ((?x31 (- 18)))
(let (($x111 (<= (+ (+ (+ ?x100 (* ?x103 |v10:1|)) (* ?x10 |v4:7|)) (* ?x108 |v8:3|)) ?x31)))
(let ((?x95 (+ (+ (+ (* ?x86 |v8:3|) (* ?x89 |v5:6|)) (* (- 5) |v1:10|)) (* ?x14 |v2:9|))))
(let ((?x81 (+ (+ (+ (* ?x71 |v9:2|) (* ?x24 |v11:0|)) (* ?x14 |v1:10|)) (* ?x79 |v1:10|))))
(let ((?x66 (+ (+ (+ (* ?x53 |v5:6|) (* ?x56 |v8:3|)) (* ?x60 |v11:0|)) (* 11 |v5:6|))))
(let ((?x47 (- 5)))
(let (($x48 (<= (+ (+ (+ (* ?x31 |v4:7|) (* ?x34 |v8:3|)) (* ?x39 |v11:0|)) ?x45) ?x47)))
(let (($x28 (<= (+ (+ (+ (* ?x10 |v4:7|) (* ?x14 |v8:3|)) (* ?x19 |v7:4|)) ?x25) ?x27)))
(let (($x140 (or (or (and $x28 $x48) (and (<= ?x66 ?x67) (<= ?x81 ?x56))) (and (and (<= ?x95 ?x60) $x111) (and (<= ?x123 ?x103) $x137)))))
(and (and (and $x140 $x227) (or $x301 $x368)) (and (and $x429 $x492) (or (and $x524 $x551) $x606))))))))))))))))))))))))))))))))))))))))))))))))))))))))))))))))))))))))))))))))))))))))))))))))))))))))))))))))))))))))))))))))))))))))))))))))
)
)
)
)
)
)
)
)
)
)
)
)
(check-sat)
(exit)

